this poscar is output at Tue, 03 Jan 2023 10:32:25 CST
   1.00000000000000
     7.0747701492385300   -0.0000000000000000   -0.0000000000000000
    -3.5373850746192939    6.1269306751766264    0.0000000000000000
    -0.0000000000000000    0.0000000000000000   12.8589043717472045
   Ti   Se
     8    16
Direct
   0.0000000000000000  0.0000000000000000  0.2500000000000000
   0.5044756853981455  0.0000000000000000  0.2500000000000000
  -0.0000000000000000  0.5044756853981454  0.2500000000000000
   0.4955243146018546  0.4955243146018545  0.2500000000000000
   0.0000000000000000  0.0000000000000000  0.7500000000000001
   0.4955243146018546  0.0000000000000000  0.7500000000000001
  -0.0000000000000001  0.4955243146018545  0.7500000000000001
   0.5044756853981455  0.5044756853981454  0.7500000000000001
   0.1680244516805998  0.3331347424429679  0.1292066843858976
   0.6666666666666657  0.3333333333333342  0.1295133967271710
   0.1651102907623708  0.8319755483194000  0.1292066843858976
   0.6668652575570320  0.8348897092376290  0.1292066843858976
   0.1651102907623709  0.3331347424429679  0.6292066843858976
   0.6666666666666657  0.3333333333333342  0.6295133967271710
   0.1680244516805998  0.8348897092376290  0.6292066843858976
   0.6668652575570321  0.8319755483194000  0.6292066843858976
   0.3331347424429680  0.1680244516805998  0.3707933156140740
   0.8319755483194000  0.1651102907623709  0.3707933156140740
   0.3333333333333343  0.6666666666666656  0.3704866032728006
   0.8348897092376291  0.6668652575570320  0.3707933156140740
   0.3331347424429680  0.1651102907623709  0.8707933156140740
   0.8348897092376292  0.1680244516805998  0.8707933156140740
   0.3333333333333343  0.6666666666666656  0.8704866032728007
   0.8319755483194000  0.6668652575570320  0.8707933156140740
