generated by phonopy
   1.0
     7.0747701492385300   -0.0000000000000000   -0.0000000000000000
    -3.5373850746192939    6.1269306751766264    0.0000000000000000
    -0.0000000000000000    0.0000000000000000   12.8589043717472045
Ti Se
   8   16
Direct
  0.0000000000000000  0.0000000000000000  0.2500000000000000
  0.5000000000000000  0.0000000000000000  0.2500000000000000
  0.0000000000000000  0.5000000000000000  0.2500000000000000
  0.5000000000000000  0.5000000000000000  0.2500000000000000
  0.0000000000000000  0.0000000000000000  0.7500000000000000
  0.5000000000000000  0.0000000000000000  0.7500000000000000
  0.0000000000000000  0.5000000000000000  0.7500000000000000
  0.5000000000000000  0.5000000000000000  0.7500000000000000
  0.1666666666666666  0.3333333333333333  0.1294099358321716
  0.6666666666666666  0.3333333333333333  0.1294099358321716
  0.1666666666666666  0.8333333333333333  0.1294099358321716
  0.6666666666666666  0.8333333333333333  0.1294099358321716
  0.1666666666666666  0.3333333333333333  0.6294099358321716
  0.6666666666666666  0.3333333333333333  0.6294099358321716
  0.1666666666666666  0.8333333333333333  0.6294099358321716
  0.6666666666666666  0.8333333333333333  0.6294099358321716
  0.3333333333333333  0.1666666666666666  0.3705900641677999
  0.8333333333333333  0.1666666666666666  0.3705900641677999
  0.3333333333333333  0.6666666666666666  0.3705900641677999
  0.8333333333333333  0.6666666666666666  0.3705900641677999
  0.3333333333333333  0.1666666666666666  0.8705900641677999
  0.8333333333333333  0.1666666666666666  0.8705900641677999
  0.3333333333333333  0.6666666666666666  0.8705900641677999
  0.8333333333333333  0.6666666666666666  0.8705900641677999
